\Problem name: compact

Minimize
OBJROW: C
Subject To
ord(0,1):  - x(0,1) + x(0,2) >= 10
ord(0,2):  x(0,0) - x(0,2) >= 3
ord(1,1):  - x(1,1) + x(1,2) >= 1
ord(1,2):  x(1,0) - x(1,2) >= 5
ord(2,1):  x(2,1) - x(2,2) >= 8
ord(2,2):  x(2,0) - x(2,1) >= 7
ord(3,1):  x(3,0) - x(3,1) >= 2
ord(3,2):  - x(3,0) + x(3,2) >= 1
ord(4,1):  - x(4,0) + x(4,2) >= 6
ord(4,2):  x(4,1) - x(4,2) >= 10
triangle2(0,1,0):  y(0,1,0) + y(1,0,0) = 1
triangle2(0,1,1):  y(0,1,1) + y(1,0,1) = 1
triangle2(0,1,2):  y(0,1,2) + y(1,0,2) = 1
triangle2(0,2,0):  y(0,2,0) + y(2,0,0) = 1
triangle2(0,2,1):  y(0,2,1) + y(2,0,1) = 1
triangle2(0,2,2):  y(0,2,2) + y(2,0,2) = 1
triangle2(0,3,0):  y(0,3,0) + y(3,0,0) = 1
triangle2(0,3,1):  y(0,3,1) + y(3,0,1) = 1
triangle2(0,3,2):  y(0,3,2) + y(3,0,2) = 1
triangle2(0,4,0):  y(0,4,0) + y(4,0,0) = 1
triangle2(0,4,1):  y(0,4,1) + y(4,0,1) = 1
triangle2(0,4,2):  y(0,4,2) + y(4,0,2) = 1
triangle2(1,2,0):  y(1,2,0) + y(2,1,0) = 1
triangle2(1,2,1):  y(1,2,1) + y(2,1,1) = 1
triangle2(1,2,2):  y(1,2,2) + y(2,1,2) = 1
triangle2(1,3,0):  y(1,3,0) + y(3,1,0) = 1
triangle2(1,3,1):  y(1,3,1) + y(3,1,1) = 1
triangle2(1,3,2):  y(1,3,2) + y(3,1,2) = 1
triangle2(1,4,0):  y(1,4,0) + y(4,1,0) = 1
triangle2(1,4,1):  y(1,4,1) + y(4,1,1) = 1
triangle2(1,4,2):  y(1,4,2) + y(4,1,2) = 1
triangle2(2,3,0):  y(2,3,0) + y(3,2,0) = 1
triangle2(2,3,1):  y(2,3,1) + y(3,2,1) = 1
triangle2(2,3,2):  y(2,3,2) + y(3,2,2) = 1
triangle2(2,4,0):  y(2,4,0) + y(4,2,0) = 1
triangle2(2,4,1):  y(2,4,1) + y(4,2,1) = 1
triangle2(2,4,2):  y(2,4,2) + y(4,2,2) = 1
triangle2(3,4,0):  y(3,4,0) + y(4,3,0) = 1
triangle2(3,4,1):  y(3,4,1) + y(4,3,1) = 1
triangle2(3,4,2):  y(3,4,2) + y(4,3,2) = 1
MCLinV(0,1,0):  x(0,0) - v(0,1,0) - x(1,0) = 1
MCLinV(1,0,0):  - x(0,0) - v(1,0,0) + x(1,0) = 4
MCLin1(0,1,0):  u(0,1,0) >= -0
MCLin2(0,1,0):  -59 y(1,0,0) - u(0,1,0) <= -0
MCLin3(0,1,0):  61 y(1,0,0) + v(0,1,0) - u(0,1,0) <= 61
MCLin4(0,1,0):  61 y(1,0,0) - u(0,1,0) >= -0
MCLin5(0,1,0):  -59 y(1,0,0) + v(0,1,0) - u(0,1,0) >= -59
MCLin6(1,0,0):  u(1,0,0) >= -0
MCLin7(1,0,0):  -66 y(0,1,0) - u(1,0,0) <= -0
MCLin8(1,0,0):  54 y(0,1,0) + v(1,0,0) - u(1,0,0) <= 54
MCLin9(1,0,0):  54 y(0,1,0) - u(1,0,0) >= -0
MCLin10(1,0,0):  -66 y(0,1,0) + v(1,0,0) - u(1,0,0) >= -66
MCLinV(0,1,1):  x(0,1) - v(0,1,1) - x(1,1) = 1
MCLinV(1,0,1):  - x(0,1) - v(1,0,1) + x(1,1) = 10
MCLin1(0,1,1):  u(0,1,1) >= -0
MCLin2(0,1,1):  -66 y(1,0,1) - u(0,1,1) <= -0
MCLin3(0,1,1):  54 y(1,0,1) + v(0,1,1) - u(0,1,1) <= 54
MCLin4(0,1,1):  54 y(1,0,1) - u(0,1,1) >= -0
MCLin5(0,1,1):  -66 y(1,0,1) + v(0,1,1) - u(0,1,1) >= -66
MCLin6(1,0,1):  u(1,0,1) >= -0
MCLin7(1,0,1):  -65 y(0,1,1) - u(1,0,1) <= -0
MCLin8(1,0,1):  55 y(0,1,1) + v(1,0,1) - u(1,0,1) <= 55
MCLin9(1,0,1):  55 y(0,1,1) - u(1,0,1) >= -0
MCLin10(1,0,1):  -65 y(0,1,1) + v(1,0,1) - u(1,0,1) >= -65
MCLinV(0,1,2):  x(0,2) - v(0,1,2) - x(1,2) = 5
MCLinV(1,0,2):  - x(0,2) - v(1,0,2) + x(1,2) = 3
MCLin1(0,1,2):  u(0,1,2) >= -0
MCLin2(0,1,2):  -61 y(1,0,2) - u(0,1,2) <= -0
MCLin3(0,1,2):  59 y(1,0,2) + v(0,1,2) - u(0,1,2) <= 59
MCLin4(0,1,2):  59 y(1,0,2) - u(0,1,2) >= -0
MCLin5(0,1,2):  -61 y(1,0,2) + v(0,1,2) - u(0,1,2) >= -61
MCLin6(1,0,2):  u(1,0,2) >= -0
MCLin7(1,0,2):  -67 y(0,1,2) - u(1,0,2) <= -0
MCLin8(1,0,2):  53 y(0,1,2) + v(1,0,2) - u(1,0,2) <= 53
MCLin9(1,0,2):  53 y(0,1,2) - u(1,0,2) >= -0
MCLin10(1,0,2):  -67 y(0,1,2) + v(1,0,2) - u(1,0,2) >= -67
MCLinV(0,2,0):  x(0,0) - v(0,2,0) - x(2,0) = 5
MCLinV(2,0,0):  - x(0,0) - v(2,0,0) + x(2,0) = 4
MCLin1(0,2,0):  u(0,2,0) >= -0
MCLin2(0,2,0):  -59 y(2,0,0) - u(0,2,0) <= -0
MCLin3(0,2,0):  48 y(2,0,0) + v(0,2,0) - u(0,2,0) <= 48
MCLin4(0,2,0):  48 y(2,0,0) - u(0,2,0) >= -0
MCLin5(0,2,0):  -59 y(2,0,0) + v(0,2,0) - u(0,2,0) >= -59
MCLin6(2,0,0):  u(2,0,0) >= -0
MCLin7(2,0,0):  -57 y(0,2,0) - u(2,0,0) <= -0
MCLin8(2,0,0):  50 y(0,2,0) + v(2,0,0) - u(2,0,0) <= 50
MCLin9(2,0,0):  50 y(0,2,0) - u(2,0,0) >= -0
MCLin10(2,0,0):  -57 y(0,2,0) + v(2,0,0) - u(2,0,0) >= -57
MCLinV(0,2,1):  x(0,1) - v(0,2,1) - x(2,1) = 7
MCLinV(2,0,1):  - x(0,1) - v(2,0,1) + x(2,1) = 10
MCLin1(0,2,1):  u(0,2,1) >= -0
MCLin2(0,2,1):  -67 y(2,0,1) - u(0,2,1) <= -0
MCLin3(0,2,1):  40 y(2,0,1) + v(0,2,1) - u(0,2,1) <= 40
MCLin4(0,2,1):  40 y(2,0,1) - u(0,2,1) >= -0
MCLin5(0,2,1):  -67 y(2,0,1) + v(0,2,1) - u(0,2,1) >= -67
MCLin6(2,0,1):  u(2,0,1) >= -0
MCLin7(2,0,1):  -57 y(0,2,1) - u(2,0,1) <= -0
MCLin8(2,0,1):  50 y(0,2,1) + v(2,0,1) - u(2,0,1) <= 50
MCLin9(2,0,1):  50 y(0,2,1) - u(2,0,1) >= -0
MCLin10(2,0,1):  -57 y(0,2,1) + v(2,0,1) - u(2,0,1) >= -57
MCLinV(0,2,2):  x(0,2) - v(0,2,2) - x(2,2) = 8
MCLinV(2,0,2):  - x(0,2) - v(2,0,2) + x(2,2) = 3
MCLin1(0,2,2):  u(0,2,2) >= -0
MCLin2(0,2,2):  -50 y(2,0,2) - u(0,2,2) <= -0
MCLin3(0,2,2):  57 y(2,0,2) + v(0,2,2) - u(0,2,2) <= 57
MCLin4(0,2,2):  57 y(2,0,2) - u(0,2,2) >= -0
MCLin5(0,2,2):  -50 y(2,0,2) + v(0,2,2) - u(0,2,2) >= -50
MCLin6(2,0,2):  u(2,0,2) >= -0
MCLin7(2,0,2):  -68 y(0,2,2) - u(2,0,2) <= -0
MCLin8(2,0,2):  39 y(0,2,2) + v(2,0,2) - u(2,0,2) <= 39
MCLin9(2,0,2):  39 y(0,2,2) - u(2,0,2) >= -0
MCLin10(2,0,2):  -68 y(0,2,2) + v(2,0,2) - u(2,0,2) >= -68
MCLinV(0,3,0):  x(0,0) - v(0,3,0) - x(3,0) = 1
MCLinV(3,0,0):  - x(0,0) - v(3,0,0) + x(3,0) = 4
MCLin1(0,3,0):  u(0,3,0) >= -0
MCLin2(0,3,0):  -56 y(3,0,0) - u(0,3,0) <= -0
MCLin3(0,3,0):  65 y(3,0,0) + v(0,3,0) - u(0,3,0) <= 65
MCLin4(0,3,0):  65 y(3,0,0) - u(0,3,0) >= -0
MCLin5(0,3,0):  -56 y(3,0,0) + v(0,3,0) - u(0,3,0) >= -56
MCLin6(3,0,0):  u(3,0,0) >= -0
MCLin7(3,0,0):  -70 y(0,3,0) - u(3,0,0) <= -0
MCLin8(3,0,0):  51 y(0,3,0) + v(3,0,0) - u(3,0,0) <= 51
MCLin9(3,0,0):  51 y(0,3,0) - u(3,0,0) >= -0
MCLin10(3,0,0):  -70 y(0,3,0) + v(3,0,0) - u(3,0,0) >= -70
MCLinV(0,3,1):  x(0,1) - v(0,3,1) - x(3,1) = 2
MCLinV(3,0,1):  - x(0,1) - v(3,0,1) + x(3,1) = 10
MCLin1(0,3,1):  u(0,3,1) >= -0
MCLin2(0,3,1):  -68 y(3,0,1) - u(0,3,1) <= -0
MCLin3(0,3,1):  53 y(3,0,1) + v(0,3,1) - u(0,3,1) <= 53
MCLin4(0,3,1):  53 y(3,0,1) - u(0,3,1) >= -0
MCLin5(0,3,1):  -68 y(3,0,1) + v(0,3,1) - u(0,3,1) >= -68
MCLin6(3,0,1):  u(3,0,1) >= -0
MCLin7(3,0,1):  -65 y(0,3,1) - u(3,0,1) <= -0
MCLin8(3,0,1):  56 y(0,3,1) + v(3,0,1) - u(3,0,1) <= 56
MCLin9(3,0,1):  56 y(0,3,1) - u(3,0,1) >= -0
MCLin10(3,0,1):  -65 y(0,3,1) + v(3,0,1) - u(3,0,1) >= -65
MCLinV(0,3,2):  x(0,2) - v(0,3,2) - x(3,2) = 3
MCLinV(3,0,2):  - x(0,2) - v(3,0,2) + x(3,2) = 3
MCLin1(0,3,2):  u(0,3,2) >= -0
MCLin2(0,3,2):  -62 y(3,0,2) - u(0,3,2) <= -0
MCLin3(0,3,2):  59 y(3,0,2) + v(0,3,2) - u(0,3,2) <= 59
MCLin4(0,3,2):  59 y(3,0,2) - u(0,3,2) >= -0
MCLin5(0,3,2):  -62 y(3,0,2) + v(0,3,2) - u(0,3,2) >= -62
MCLin6(3,0,2):  u(3,0,2) >= -0
MCLin7(3,0,2):  -65 y(0,3,2) - u(3,0,2) <= -0
MCLin8(3,0,2):  56 y(0,3,2) + v(3,0,2) - u(3,0,2) <= 56
MCLin9(3,0,2):  56 y(0,3,2) - u(3,0,2) >= -0
MCLin10(3,0,2):  -65 y(0,3,2) + v(3,0,2) - u(3,0,2) >= -65
MCLinV(0,4,0):  x(0,0) - v(0,4,0) - x(4,0) = 6
MCLinV(4,0,0):  - x(0,0) - v(4,0,0) + x(4,0) = 4
MCLin1(0,4,0):  u(0,4,0) >= -0
MCLin2(0,4,0):  -43 y(4,0,0) - u(0,4,0) <= -0
MCLin3(0,4,0):  62 y(4,0,0) + v(0,4,0) - u(0,4,0) <= 62
MCLin4(0,4,0):  62 y(4,0,0) - u(0,4,0) >= -0
MCLin5(0,4,0):  -43 y(4,0,0) + v(0,4,0) - u(0,4,0) >= -43
MCLin6(4,0,0):  u(4,0,0) >= -0
MCLin7(4,0,0):  -72 y(0,4,0) - u(4,0,0) <= -0
MCLin8(4,0,0):  33 y(0,4,0) + v(4,0,0) - u(4,0,0) <= 33
MCLin9(4,0,0):  33 y(0,4,0) - u(4,0,0) >= -0
MCLin10(4,0,0):  -72 y(0,4,0) + v(4,0,0) - u(4,0,0) >= -72
MCLinV(0,4,1):  x(0,1) - v(0,4,1) - x(4,1) = 6
MCLinV(4,0,1):  - x(0,1) - v(4,0,1) + x(4,1) = 10
MCLin1(0,4,1):  u(0,4,1) >= -0
MCLin2(0,4,1):  -72 y(4,0,1) - u(0,4,1) <= -0
MCLin3(0,4,1):  33 y(4,0,1) + v(0,4,1) - u(0,4,1) <= 33
MCLin4(0,4,1):  33 y(4,0,1) - u(0,4,1) >= -0
MCLin5(0,4,1):  -72 y(4,0,1) + v(0,4,1) - u(0,4,1) >= -72
MCLin6(4,0,1):  u(4,0,1) >= -0
MCLin7(4,0,1):  -49 y(0,4,1) - u(4,0,1) <= -0
MCLin8(4,0,1):  56 y(0,4,1) + v(4,0,1) - u(4,0,1) <= 56
MCLin9(4,0,1):  56 y(0,4,1) - u(4,0,1) >= -0
MCLin10(4,0,1):  -49 y(0,4,1) + v(4,0,1) - u(4,0,1) >= -49
MCLinV(0,4,2):  x(0,2) - v(0,4,2) - x(4,2) = 10
MCLinV(4,0,2):  - x(0,2) - v(4,0,2) + x(4,2) = 3
MCLin1(0,4,2):  u(0,4,2) >= -0
MCLin2(0,4,2):  -56 y(4,0,2) - u(0,4,2) <= -0
MCLin3(0,4,2):  49 y(4,0,2) + v(0,4,2) - u(0,4,2) <= 49
MCLin4(0,4,2):  49 y(4,0,2) - u(0,4,2) >= -0
MCLin5(0,4,2):  -56 y(4,0,2) + v(0,4,2) - u(0,4,2) >= -56
MCLin6(4,0,2):  u(4,0,2) >= -0
MCLin7(4,0,2):  -62 y(0,4,2) - u(4,0,2) <= -0
MCLin8(4,0,2):  43 y(0,4,2) + v(4,0,2) - u(4,0,2) <= 43
MCLin9(4,0,2):  43 y(0,4,2) - u(4,0,2) >= -0
MCLin10(4,0,2):  -62 y(0,4,2) + v(4,0,2) - u(4,0,2) >= -62
MCLinV(1,2,0):  x(1,0) - v(1,2,0) - x(2,0) = 5
MCLinV(2,1,0):  - x(1,0) - v(2,1,0) + x(2,0) = 1
MCLin1(1,2,0):  u(1,2,0) >= -0
MCLin2(1,2,0):  -66 y(2,1,0) - u(1,2,0) <= -0
MCLin3(1,2,0):  51 y(2,1,0) + v(1,2,0) - u(1,2,0) <= 51
MCLin4(1,2,0):  51 y(2,1,0) - u(1,2,0) >= -0
MCLin5(1,2,0):  -66 y(2,1,0) + v(1,2,0) - u(1,2,0) >= -66
MCLin6(2,1,0):  u(2,1,0) >= -0
MCLin7(2,1,0):  -57 y(1,2,0) - u(2,1,0) <= -0
MCLin8(2,1,0):  60 y(1,2,0) + v(2,1,0) - u(2,1,0) <= 60
MCLin9(2,1,0):  60 y(1,2,0) - u(2,1,0) >= -0
MCLin10(2,1,0):  -57 y(1,2,0) + v(2,1,0) - u(2,1,0) >= -57
MCLinV(1,2,1):  x(1,1) - v(1,2,1) - x(2,1) = 7
MCLinV(2,1,1):  - x(1,1) - v(2,1,1) + x(2,1) = 1
MCLin1(1,2,1):  u(1,2,1) >= -0
MCLin2(1,2,1):  -67 y(2,1,1) - u(1,2,1) <= -0
MCLin3(1,2,1):  50 y(2,1,1) + v(1,2,1) - u(1,2,1) <= 50
MCLin4(1,2,1):  50 y(2,1,1) - u(1,2,1) >= -0
MCLin5(1,2,1):  -67 y(2,1,1) + v(1,2,1) - u(1,2,1) >= -67
MCLin6(2,1,1):  u(2,1,1) >= -0
MCLin7(2,1,1):  -58 y(1,2,1) - u(2,1,1) <= -0
MCLin8(2,1,1):  59 y(1,2,1) + v(2,1,1) - u(2,1,1) <= 59
MCLin9(2,1,1):  59 y(1,2,1) - u(2,1,1) >= -0
MCLin10(2,1,1):  -58 y(1,2,1) + v(2,1,1) - u(2,1,1) >= -58
MCLinV(1,2,2):  x(1,2) - v(1,2,2) - x(2,2) = 8
MCLinV(2,1,2):  - x(1,2) - v(2,1,2) + x(2,2) = 5
MCLin1(1,2,2):  u(1,2,2) >= -0
MCLin2(1,2,2):  -59 y(2,1,2) - u(1,2,2) <= -0
MCLin3(1,2,2):  58 y(2,1,2) + v(1,2,2) - u(1,2,2) <= 58
MCLin4(1,2,2):  58 y(2,1,2) - u(1,2,2) >= -0
MCLin5(1,2,2):  -59 y(2,1,2) + v(1,2,2) - u(1,2,2) >= -59
MCLin6(2,1,2):  u(2,1,2) >= -0
MCLin7(2,1,2):  -71 y(1,2,2) - u(2,1,2) <= -0
MCLin8(2,1,2):  46 y(1,2,2) + v(2,1,2) - u(2,1,2) <= 46
MCLin9(2,1,2):  46 y(1,2,2) - u(2,1,2) >= -0
MCLin10(2,1,2):  -71 y(1,2,2) + v(2,1,2) - u(2,1,2) >= -71
MCLinV(1,3,0):  x(1,0) - v(1,3,0) - x(3,0) = 1
MCLinV(3,1,0):  - x(1,0) - v(3,1,0) + x(3,0) = 1
MCLin1(1,3,0):  u(1,3,0) >= -0
MCLin2(1,3,0):  -63 y(3,1,0) - u(1,3,0) <= -0
MCLin3(1,3,0):  68 y(3,1,0) + v(1,3,0) - u(1,3,0) <= 68
MCLin4(1,3,0):  68 y(3,1,0) - u(1,3,0) >= -0
MCLin5(1,3,0):  -63 y(3,1,0) + v(1,3,0) - u(1,3,0) >= -63
MCLin6(3,1,0):  u(3,1,0) >= -0
MCLin7(3,1,0):  -70 y(1,3,0) - u(3,1,0) <= -0
MCLin8(3,1,0):  61 y(1,3,0) + v(3,1,0) - u(3,1,0) <= 61
MCLin9(3,1,0):  61 y(1,3,0) - u(3,1,0) >= -0
MCLin10(3,1,0):  -70 y(1,3,0) + v(3,1,0) - u(3,1,0) >= -70
MCLinV(1,3,1):  x(1,1) - v(1,3,1) - x(3,1) = 2
MCLinV(3,1,1):  - x(1,1) - v(3,1,1) + x(3,1) = 1
MCLin1(1,3,1):  u(1,3,1) >= -0
MCLin2(1,3,1):  -68 y(3,1,1) - u(1,3,1) <= -0
MCLin3(1,3,1):  63 y(3,1,1) + v(1,3,1) - u(1,3,1) <= 63
MCLin4(1,3,1):  63 y(3,1,1) - u(1,3,1) >= -0
MCLin5(1,3,1):  -68 y(3,1,1) + v(1,3,1) - u(1,3,1) >= -68
MCLin6(3,1,1):  u(3,1,1) >= -0
MCLin7(3,1,1):  -66 y(1,3,1) - u(3,1,1) <= -0
MCLin8(3,1,1):  65 y(1,3,1) + v(3,1,1) - u(3,1,1) <= 65
MCLin9(3,1,1):  65 y(1,3,1) - u(3,1,1) >= -0
MCLin10(3,1,1):  -66 y(1,3,1) + v(3,1,1) - u(3,1,1) >= -66
MCLinV(1,3,2):  x(1,2) - v(1,3,2) - x(3,2) = 3
MCLinV(3,1,2):  - x(1,2) - v(3,1,2) + x(3,2) = 5
MCLin1(1,3,2):  u(1,3,2) >= -0
MCLin2(1,3,2):  -71 y(3,1,2) - u(1,3,2) <= -0
MCLin3(1,3,2):  60 y(3,1,2) + v(1,3,2) - u(1,3,2) <= 60
MCLin4(1,3,2):  60 y(3,1,2) - u(1,3,2) >= -0
MCLin5(1,3,2):  -71 y(3,1,2) + v(1,3,2) - u(1,3,2) >= -71
MCLin6(3,1,2):  u(3,1,2) >= -0
MCLin7(3,1,2):  -68 y(1,3,2) - u(3,1,2) <= -0
MCLin8(3,1,2):  63 y(1,3,2) + v(3,1,2) - u(3,1,2) <= 63
MCLin9(3,1,2):  63 y(1,3,2) - u(3,1,2) >= -0
MCLin10(3,1,2):  -68 y(1,3,2) + v(3,1,2) - u(3,1,2) >= -68
MCLinV(1,4,0):  x(1,0) - v(1,4,0) - x(4,0) = 6
MCLinV(4,1,0):  - x(1,0) - v(4,1,0) + x(4,0) = 1
MCLin1(1,4,0):  u(1,4,0) >= -0
MCLin2(1,4,0):  -50 y(4,1,0) - u(1,4,0) <= -0
MCLin3(1,4,0):  65 y(4,1,0) + v(1,4,0) - u(1,4,0) <= 65
MCLin4(1,4,0):  65 y(4,1,0) - u(1,4,0) >= -0
MCLin5(1,4,0):  -50 y(4,1,0) + v(1,4,0) - u(1,4,0) >= -50
MCLin6(4,1,0):  u(4,1,0) >= -0
MCLin7(4,1,0):  -72 y(1,4,0) - u(4,1,0) <= -0
MCLin8(4,1,0):  43 y(1,4,0) + v(4,1,0) - u(4,1,0) <= 43
MCLin9(4,1,0):  43 y(1,4,0) - u(4,1,0) >= -0
MCLin10(4,1,0):  -72 y(1,4,0) + v(4,1,0) - u(4,1,0) >= -72
MCLinV(1,4,1):  x(1,1) - v(1,4,1) - x(4,1) = 6
MCLinV(4,1,1):  - x(1,1) - v(4,1,1) + x(4,1) = 1
MCLin1(1,4,1):  u(1,4,1) >= -0
MCLin2(1,4,1):  -72 y(4,1,1) - u(1,4,1) <= -0
MCLin3(1,4,1):  43 y(4,1,1) + v(1,4,1) - u(1,4,1) <= 43
MCLin4(1,4,1):  43 y(4,1,1) - u(1,4,1) >= -0
MCLin5(1,4,1):  -72 y(4,1,1) + v(1,4,1) - u(1,4,1) >= -72
MCLin6(4,1,1):  u(4,1,1) >= -0
MCLin7(4,1,1):  -50 y(1,4,1) - u(4,1,1) <= -0
MCLin8(4,1,1):  65 y(1,4,1) + v(4,1,1) - u(4,1,1) <= 65
MCLin9(4,1,1):  65 y(1,4,1) - u(4,1,1) >= -0
MCLin10(4,1,1):  -50 y(1,4,1) + v(4,1,1) - u(4,1,1) >= -50
MCLinV(1,4,2):  x(1,2) - v(1,4,2) - x(4,2) = 10
MCLinV(4,1,2):  - x(1,2) - v(4,1,2) + x(4,2) = 5
MCLin1(1,4,2):  u(1,4,2) >= -0
MCLin2(1,4,2):  -65 y(4,1,2) - u(1,4,2) <= -0
MCLin3(1,4,2):  50 y(4,1,2) + v(1,4,2) - u(1,4,2) <= 50
MCLin4(1,4,2):  50 y(4,1,2) - u(1,4,2) >= -0
MCLin5(1,4,2):  -65 y(4,1,2) + v(1,4,2) - u(1,4,2) >= -65
MCLin6(4,1,2):  u(4,1,2) >= -0
MCLin7(4,1,2):  -65 y(1,4,2) - u(4,1,2) <= -0
MCLin8(4,1,2):  50 y(1,4,2) + v(4,1,2) - u(4,1,2) <= 50
MCLin9(4,1,2):  50 y(1,4,2) - u(4,1,2) >= -0
MCLin10(4,1,2):  -65 y(1,4,2) + v(4,1,2) - u(4,1,2) >= -65
MCLinV(2,3,0):  x(2,0) - v(2,3,0) - x(3,0) = 1
MCLinV(3,2,0):  - x(2,0) - v(3,2,0) + x(3,0) = 5
MCLin1(2,3,0):  u(2,3,0) >= -0
MCLin2(2,3,0):  -54 y(3,2,0) - u(2,3,0) <= -0
MCLin3(2,3,0):  64 y(3,2,0) + v(2,3,0) - u(2,3,0) <= 64
MCLin4(2,3,0):  64 y(3,2,0) - u(2,3,0) >= -0
MCLin5(2,3,0):  -54 y(3,2,0) + v(2,3,0) - u(2,3,0) >= -54
MCLin6(3,2,0):  u(3,2,0) >= -0
MCLin7(3,2,0):  -70 y(2,3,0) - u(3,2,0) <= -0
MCLin8(3,2,0):  48 y(2,3,0) + v(3,2,0) - u(3,2,0) <= 48
MCLin9(3,2,0):  48 y(2,3,0) - u(3,2,0) >= -0
MCLin10(3,2,0):  -70 y(2,3,0) + v(3,2,0) - u(3,2,0) >= -70
MCLinV(2,3,1):  x(2,1) - v(2,3,1) - x(3,1) = 2
MCLinV(3,2,1):  - x(2,1) - v(3,2,1) + x(3,1) = 7
MCLin1(2,3,1):  u(2,3,1) >= -0
MCLin2(2,3,1):  -60 y(3,2,1) - u(2,3,1) <= -0
MCLin3(2,3,1):  58 y(3,2,1) + v(2,3,1) - u(2,3,1) <= 58
MCLin4(2,3,1):  58 y(3,2,1) - u(2,3,1) >= -0
MCLin5(2,3,1):  -60 y(3,2,1) + v(2,3,1) - u(2,3,1) >= -60
MCLin6(3,2,1):  u(3,2,1) >= -0
MCLin7(3,2,1):  -67 y(2,3,1) - u(3,2,1) <= -0
MCLin8(3,2,1):  51 y(2,3,1) + v(3,2,1) - u(3,2,1) <= 51
MCLin9(3,2,1):  51 y(2,3,1) - u(3,2,1) >= -0
MCLin10(3,2,1):  -67 y(2,3,1) + v(3,2,1) - u(3,2,1) >= -67
MCLinV(2,3,2):  x(2,2) - v(2,3,2) - x(3,2) = 3
MCLinV(3,2,2):  - x(2,2) - v(3,2,2) + x(3,2) = 8
MCLin1(2,3,2):  u(2,3,2) >= -0
MCLin2(2,3,2):  -72 y(3,2,2) - u(2,3,2) <= -0
MCLin3(2,3,2):  46 y(3,2,2) + v(2,3,2) - u(2,3,2) <= 46
MCLin4(2,3,2):  46 y(3,2,2) - u(2,3,2) >= -0
MCLin5(2,3,2):  -72 y(3,2,2) + v(2,3,2) - u(2,3,2) >= -72
MCLin6(3,2,2):  u(3,2,2) >= -0
MCLin7(3,2,2):  -57 y(2,3,2) - u(3,2,2) <= -0
MCLin8(3,2,2):  61 y(2,3,2) + v(3,2,2) - u(3,2,2) <= 61
MCLin9(3,2,2):  61 y(2,3,2) - u(3,2,2) >= -0
MCLin10(3,2,2):  -57 y(2,3,2) + v(3,2,2) - u(3,2,2) >= -57
MCLinV(2,4,0):  x(2,0) - v(2,4,0) - x(4,0) = 6
MCLinV(4,2,0):  - x(2,0) - v(4,2,0) + x(4,0) = 5
MCLin1(2,4,0):  u(2,4,0) >= -0
MCLin2(2,4,0):  -41 y(4,2,0) - u(2,4,0) <= -0
MCLin3(2,4,0):  61 y(4,2,0) + v(2,4,0) - u(2,4,0) <= 61
MCLin4(2,4,0):  61 y(4,2,0) - u(2,4,0) >= -0
MCLin5(2,4,0):  -41 y(4,2,0) + v(2,4,0) - u(2,4,0) >= -41
MCLin6(4,2,0):  u(4,2,0) >= -0
MCLin7(4,2,0):  -72 y(2,4,0) - u(4,2,0) <= -0
MCLin8(4,2,0):  30 y(2,4,0) + v(4,2,0) - u(4,2,0) <= 30
MCLin9(4,2,0):  30 y(2,4,0) - u(4,2,0) >= -0
MCLin10(4,2,0):  -72 y(2,4,0) + v(4,2,0) - u(4,2,0) >= -72
MCLinV(2,4,1):  x(2,1) - v(2,4,1) - x(4,1) = 6
MCLinV(4,2,1):  - x(2,1) - v(4,2,1) + x(4,1) = 7
MCLin1(2,4,1):  u(2,4,1) >= -0
MCLin2(2,4,1):  -64 y(4,2,1) - u(2,4,1) <= -0
MCLin3(2,4,1):  38 y(4,2,1) + v(2,4,1) - u(2,4,1) <= 38
MCLin4(2,4,1):  38 y(4,2,1) - u(2,4,1) >= -0
MCLin5(2,4,1):  -64 y(4,2,1) + v(2,4,1) - u(2,4,1) >= -64
MCLin6(4,2,1):  u(4,2,1) >= -0
MCLin7(4,2,1):  -51 y(2,4,1) - u(4,2,1) <= -0
MCLin8(4,2,1):  51 y(2,4,1) + v(4,2,1) - u(4,2,1) <= 51
MCLin9(4,2,1):  51 y(2,4,1) - u(4,2,1) >= -0
MCLin10(4,2,1):  -51 y(2,4,1) + v(4,2,1) - u(4,2,1) >= -51
MCLinV(2,4,2):  x(2,2) - v(2,4,2) - x(4,2) = 10
MCLinV(4,2,2):  - x(2,2) - v(4,2,2) + x(4,2) = 8
MCLin1(2,4,2):  u(2,4,2) >= -0
MCLin2(2,4,2):  -66 y(4,2,2) - u(2,4,2) <= -0
MCLin3(2,4,2):  36 y(4,2,2) + v(2,4,2) - u(2,4,2) <= 36
MCLin4(2,4,2):  36 y(4,2,2) - u(2,4,2) >= -0
MCLin5(2,4,2):  -66 y(4,2,2) + v(2,4,2) - u(2,4,2) >= -66
MCLin6(4,2,2):  u(4,2,2) >= -0
MCLin7(4,2,2):  -54 y(2,4,2) - u(4,2,2) <= -0
MCLin8(4,2,2):  48 y(2,4,2) + v(4,2,2) - u(4,2,2) <= 48
MCLin9(4,2,2):  48 y(2,4,2) - u(4,2,2) >= -0
MCLin10(4,2,2):  -54 y(2,4,2) + v(4,2,2) - u(4,2,2) >= -54
MCLinV(3,4,0):  x(3,0) - v(3,4,0) - x(4,0) = 6
MCLinV(4,3,0):  - x(3,0) - v(4,3,0) + x(4,0) = 1
MCLin1(3,4,0):  u(3,4,0) >= -0
MCLin2(3,4,0):  -54 y(4,3,0) - u(3,4,0) <= -0
MCLin3(3,4,0):  62 y(4,3,0) + v(3,4,0) - u(3,4,0) <= 62
MCLin4(3,4,0):  62 y(4,3,0) - u(3,4,0) >= -0
MCLin5(3,4,0):  -54 y(4,3,0) + v(3,4,0) - u(3,4,0) >= -54
MCLin6(4,3,0):  u(4,3,0) >= -0
MCLin7(4,3,0):  -69 y(3,4,0) - u(4,3,0) <= -0
MCLin8(4,3,0):  47 y(3,4,0) + v(4,3,0) - u(4,3,0) <= 47
MCLin9(4,3,0):  47 y(3,4,0) - u(4,3,0) >= -0
MCLin10(4,3,0):  -69 y(3,4,0) + v(4,3,0) - u(4,3,0) >= -69
MCLinV(3,4,1):  x(3,1) - v(3,4,1) - x(4,1) = 6
MCLinV(4,3,1):  - x(3,1) - v(4,3,1) + x(4,1) = 2
MCLin1(3,4,1):  u(3,4,1) >= -0
MCLin2(3,4,1):  -72 y(4,3,1) - u(3,4,1) <= -0
MCLin3(3,4,1):  44 y(4,3,1) + v(3,4,1) - u(3,4,1) <= 44
MCLin4(3,4,1):  44 y(4,3,1) - u(3,4,1) >= -0
MCLin5(3,4,1):  -72 y(4,3,1) + v(3,4,1) - u(3,4,1) >= -72
MCLin6(4,3,1):  u(4,3,1) >= -0
MCLin7(4,3,1):  -52 y(3,4,1) - u(4,3,1) <= -0
MCLin8(4,3,1):  64 y(3,4,1) + v(4,3,1) - u(4,3,1) <= 64
MCLin9(4,3,1):  64 y(3,4,1) - u(4,3,1) >= -0
MCLin10(4,3,1):  -52 y(3,4,1) + v(4,3,1) - u(4,3,1) >= -52
MCLinV(3,4,2):  x(3,2) - v(3,4,2) - x(4,2) = 10
MCLinV(4,3,2):  - x(3,2) - v(4,3,2) + x(4,2) = 3
MCLin1(3,4,2):  u(3,4,2) >= -0
MCLin2(3,4,2):  -63 y(4,3,2) - u(3,4,2) <= -0
MCLin3(3,4,2):  53 y(4,3,2) + v(3,4,2) - u(3,4,2) <= 53
MCLin4(3,4,2):  53 y(4,3,2) - u(3,4,2) >= -0
MCLin5(3,4,2):  -63 y(4,3,2) + v(3,4,2) - u(3,4,2) >= -63
MCLin6(4,3,2):  u(4,3,2) >= -0
MCLin7(4,3,2):  -66 y(3,4,2) - u(4,3,2) <= -0
MCLin8(4,3,2):  50 y(3,4,2) + v(4,3,2) - u(4,3,2) <= 50
MCLin9(4,3,2):  50 y(3,4,2) - u(4,3,2) >= -0
MCLin10(4,3,2):  -66 y(3,4,2) + v(4,3,2) - u(4,3,2) >= -66
makespan(0):  C - x(0,0) >= 4
makespan(1):  C - x(1,0) >= 1
makespan(2):  C - x(2,0) >= 5
makespan(3):  C - x(3,2) >= 3
makespan(4):  C - x(4,1) >= 6
Bounds
 0 <= C <= 72
 13 <= x(0,0) <= 68
 0 <= y(0,1,0) <= 1
 0 <= y(1,0,0) <= 1
 -59 <= v(0,1,0) <= 61
 -66 <= v(1,0,0) <= 54
 -720 <= u(0,1,0)
 -720 <= u(1,0,0)
 0 <= y(0,2,0) <= 1
 0 <= y(2,0,0) <= 1
 -59 <= v(0,2,0) <= 48
 -57 <= v(2,0,0) <= 50
 -720 <= u(0,2,0)
 -720 <= u(2,0,0)
 0 <= y(0,3,0) <= 1
 0 <= y(3,0,0) <= 1
 -56 <= v(0,3,0) <= 65
 -70 <= v(3,0,0) <= 51
 -720 <= u(0,3,0)
 -720 <= u(3,0,0)
 0 <= y(0,4,0) <= 1
 0 <= y(4,0,0) <= 1
 -43 <= v(0,4,0) <= 62
 -72 <= v(4,0,0) <= 33
 -720 <= u(0,4,0)
 -720 <= u(4,0,0)
 6 <= x(1,0) <= 71
 0 <= y(1,2,0) <= 1
 0 <= y(2,1,0) <= 1
 -66 <= v(1,2,0) <= 51
 -57 <= v(2,1,0) <= 60
 -720 <= u(1,2,0)
 -720 <= u(2,1,0)
 0 <= y(1,3,0) <= 1
 0 <= y(3,1,0) <= 1
 -63 <= v(1,3,0) <= 68
 -70 <= v(3,1,0) <= 61
 -720 <= u(1,3,0)
 -720 <= u(3,1,0)
 0 <= y(1,4,0) <= 1
 0 <= y(4,1,0) <= 1
 -50 <= v(1,4,0) <= 65
 -72 <= v(4,1,0) <= 43
 -720 <= u(1,4,0)
 -720 <= u(4,1,0)
 15 <= x(2,0) <= 67
 0 <= y(2,3,0) <= 1
 0 <= y(3,2,0) <= 1
 -54 <= v(2,3,0) <= 64
 -70 <= v(3,2,0) <= 48
 -720 <= u(2,3,0)
 -720 <= u(3,2,0)
 0 <= y(2,4,0) <= 1
 0 <= y(4,2,0) <= 1
 -41 <= v(2,4,0) <= 61
 -72 <= v(4,2,0) <= 30
 -720 <= u(2,4,0)
 -720 <= u(4,2,0)
 2 <= x(3,0) <= 68
 0 <= y(3,4,0) <= 1
 0 <= y(4,3,0) <= 1
 -54 <= v(3,4,0) <= 62
 -69 <= v(4,3,0) <= 47
 -720 <= u(3,4,0)
 -720 <= u(4,3,0)
 0 <= x(4,0) <= 50
 0 <= x(0,1) <= 55
 0 <= y(0,1,1) <= 1
 0 <= y(1,0,1) <= 1
 -66 <= v(0,1,1) <= 54
 -65 <= v(1,0,1) <= 55
 -720 <= u(0,1,1)
 -720 <= u(1,0,1)
 0 <= y(0,2,1) <= 1
 0 <= y(2,0,1) <= 1
 -67 <= v(0,2,1) <= 40
 -57 <= v(2,0,1) <= 50
 -720 <= u(0,2,1)
 -720 <= u(2,0,1)
 0 <= y(0,3,1) <= 1
 0 <= y(3,0,1) <= 1
 -68 <= v(0,3,1) <= 53
 -65 <= v(3,0,1) <= 56
 -720 <= u(0,3,1)
 -720 <= u(3,0,1)
 0 <= y(0,4,1) <= 1
 0 <= y(4,0,1) <= 1
 -72 <= v(0,4,1) <= 33
 -49 <= v(4,0,1) <= 56
 -720 <= u(0,4,1)
 -720 <= u(4,0,1)
 0 <= x(1,1) <= 65
 0 <= y(1,2,1) <= 1
 0 <= y(2,1,1) <= 1
 -67 <= v(1,2,1) <= 50
 -58 <= v(2,1,1) <= 59
 -720 <= u(1,2,1)
 -720 <= u(2,1,1)
 0 <= y(1,3,1) <= 1
 0 <= y(3,1,1) <= 1
 -68 <= v(1,3,1) <= 63
 -66 <= v(3,1,1) <= 65
 -720 <= u(1,3,1)
 -720 <= u(3,1,1)
 0 <= y(1,4,1) <= 1
 0 <= y(4,1,1) <= 1
 -72 <= v(1,4,1) <= 43
 -50 <= v(4,1,1) <= 65
 -720 <= u(1,4,1)
 -720 <= u(4,1,1)
 8 <= x(2,1) <= 60
 0 <= y(2,3,1) <= 1
 0 <= y(3,2,1) <= 1
 -60 <= v(2,3,1) <= 58
 -67 <= v(3,2,1) <= 51
 -720 <= u(2,3,1)
 -720 <= u(3,2,1)
 0 <= y(2,4,1) <= 1
 0 <= y(4,2,1) <= 1
 -64 <= v(2,4,1) <= 38
 -51 <= v(4,2,1) <= 51
 -720 <= u(2,4,1)
 -720 <= u(4,2,1)
 0 <= x(3,1) <= 66
 0 <= y(3,4,1) <= 1
 0 <= y(4,3,1) <= 1
 -72 <= v(3,4,1) <= 44
 -52 <= v(4,3,1) <= 64
 -720 <= u(3,4,1)
 -720 <= u(4,3,1)
 16 <= x(4,1) <= 66
 10 <= x(0,2) <= 65
 0 <= y(0,1,2) <= 1
 0 <= y(1,0,2) <= 1
 -61 <= v(0,1,2) <= 59
 -67 <= v(1,0,2) <= 53
 -720 <= u(0,1,2)
 -720 <= u(1,0,2)
 0 <= y(0,2,2) <= 1
 0 <= y(2,0,2) <= 1
 -50 <= v(0,2,2) <= 57
 -68 <= v(2,0,2) <= 39
 -720 <= u(0,2,2)
 -720 <= u(2,0,2)
 0 <= y(0,3,2) <= 1
 0 <= y(3,0,2) <= 1
 -62 <= v(0,3,2) <= 59
 -65 <= v(3,0,2) <= 56
 -720 <= u(0,3,2)
 -720 <= u(3,0,2)
 0 <= y(0,4,2) <= 1
 0 <= y(4,0,2) <= 1
 -56 <= v(0,4,2) <= 49
 -62 <= v(4,0,2) <= 43
 -720 <= u(0,4,2)
 -720 <= u(4,0,2)
 1 <= x(1,2) <= 66
 0 <= y(1,2,2) <= 1
 0 <= y(2,1,2) <= 1
 -59 <= v(1,2,2) <= 58
 -71 <= v(2,1,2) <= 46
 -720 <= u(1,2,2)
 -720 <= u(2,1,2)
 0 <= y(1,3,2) <= 1
 0 <= y(3,1,2) <= 1
 -71 <= v(1,3,2) <= 60
 -68 <= v(3,1,2) <= 63
 -720 <= u(1,3,2)
 -720 <= u(3,1,2)
 0 <= y(1,4,2) <= 1
 0 <= y(4,1,2) <= 1
 -65 <= v(1,4,2) <= 50
 -65 <= v(4,1,2) <= 50
 -720 <= u(1,4,2)
 -720 <= u(4,1,2)
 0 <= x(2,2) <= 52
 0 <= y(2,3,2) <= 1
 0 <= y(3,2,2) <= 1
 -72 <= v(2,3,2) <= 46
 -57 <= v(3,2,2) <= 61
 -720 <= u(2,3,2)
 -720 <= u(3,2,2)
 0 <= y(2,4,2) <= 1
 0 <= y(4,2,2) <= 1
 -66 <= v(2,4,2) <= 36
 -54 <= v(4,2,2) <= 48
 -720 <= u(2,4,2)
 -720 <= u(4,2,2)
 3 <= x(3,2) <= 69
 0 <= y(3,4,2) <= 1
 0 <= y(4,3,2) <= 1
 -63 <= v(3,4,2) <= 53
 -66 <= v(4,3,2) <= 50
 -720 <= u(3,4,2)
 -720 <= u(4,3,2)
 6 <= x(4,2) <= 56
Integers
C x(0,0) y(0,1,0) y(1,0,0) v(0,1,0) v(1,0,0) u(0,1,0) u(1,0,0) y(0,2,0) y(2,0,0) 
v(0,2,0) v(2,0,0) u(0,2,0) u(2,0,0) y(0,3,0) y(3,0,0) v(0,3,0) v(3,0,0) u(0,3,0) u(3,0,0) 
y(0,4,0) y(4,0,0) v(0,4,0) v(4,0,0) u(0,4,0) u(4,0,0) x(1,0) y(1,2,0) y(2,1,0) v(1,2,0) 
v(2,1,0) u(1,2,0) u(2,1,0) y(1,3,0) y(3,1,0) v(1,3,0) v(3,1,0) u(1,3,0) u(3,1,0) y(1,4,0) 
y(4,1,0) v(1,4,0) v(4,1,0) u(1,4,0) u(4,1,0) x(2,0) y(2,3,0) y(3,2,0) v(2,3,0) v(3,2,0) 
u(2,3,0) u(3,2,0) y(2,4,0) y(4,2,0) v(2,4,0) v(4,2,0) u(2,4,0) u(4,2,0) x(3,0) y(3,4,0) 
y(4,3,0) v(3,4,0) v(4,3,0) u(3,4,0) u(4,3,0) x(4,0) x(0,1) y(0,1,1) y(1,0,1) v(0,1,1) 
v(1,0,1) u(0,1,1) u(1,0,1) y(0,2,1) y(2,0,1) v(0,2,1) v(2,0,1) u(0,2,1) u(2,0,1) y(0,3,1) 
y(3,0,1) v(0,3,1) v(3,0,1) u(0,3,1) u(3,0,1) y(0,4,1) y(4,0,1) v(0,4,1) v(4,0,1) u(0,4,1) 
u(4,0,1) x(1,1) y(1,2,1) y(2,1,1) v(1,2,1) v(2,1,1) u(1,2,1) u(2,1,1) y(1,3,1) y(3,1,1) 
v(1,3,1) v(3,1,1) u(1,3,1) u(3,1,1) y(1,4,1) y(4,1,1) v(1,4,1) v(4,1,1) u(1,4,1) u(4,1,1) 
x(2,1) y(2,3,1) y(3,2,1) v(2,3,1) v(3,2,1) u(2,3,1) u(3,2,1) y(2,4,1) y(4,2,1) v(2,4,1) 
v(4,2,1) u(2,4,1) u(4,2,1) x(3,1) y(3,4,1) y(4,3,1) v(3,4,1) v(4,3,1) u(3,4,1) u(4,3,1) 
x(4,1) x(0,2) y(0,1,2) y(1,0,2) v(0,1,2) v(1,0,2) u(0,1,2) u(1,0,2) y(0,2,2) y(2,0,2) 
v(0,2,2) v(2,0,2) u(0,2,2) u(2,0,2) y(0,3,2) y(3,0,2) v(0,3,2) v(3,0,2) u(0,3,2) u(3,0,2) 
y(0,4,2) y(4,0,2) v(0,4,2) v(4,0,2) u(0,4,2) u(4,0,2) x(1,2) y(1,2,2) y(2,1,2) v(1,2,2) 
v(2,1,2) u(1,2,2) u(2,1,2) y(1,3,2) y(3,1,2) v(1,3,2) v(3,1,2) u(1,3,2) u(3,1,2) y(1,4,2) 
y(4,1,2) v(1,4,2) v(4,1,2) u(1,4,2) u(4,1,2) x(2,2) y(2,3,2) y(3,2,2) v(2,3,2) v(3,2,2) 
u(2,3,2) u(3,2,2) y(2,4,2) y(4,2,2) v(2,4,2) v(4,2,2) u(2,4,2) u(4,2,2) x(3,2) y(3,4,2) 
y(4,3,2) v(3,4,2) v(4,3,2) u(3,4,2) u(4,3,2) x(4,2) 
End
